312
120
504
488
21
498
348
300
150
352
48
18
44
53
2
616
210
304
20
320
420
168
264
608
290
66
534
245
91
118
126
552
180
560
150
434
372
47
434
459
110
640
24
102
70
147
730
390
36
24
801
300
140
9
630
424
8
672
92
60
710
264
16
470
280
546
810
288
250
32
2
12
324
8
540
315
18
900
308
136
148
558
112
336
75
504
468
783
124
40
85
640
246
53
72
78
356
300
328
29
